
Gurobi 9.5.1 (mac64[x86]) logging started Sat Jun 11 11:21:54 2022

Set parameter LogFile to value "/Users/keyvanmajd/Documents/GitHub/NNRepLayer_v2/demos/walking_example/dynamic_constraint/repair_net/logs/opt_log_6_11_2022_11_20_57.log"
Gurobi Optimizer version 9.5.1 build v9.5.1rc2 (mac64[x86])
Thread count: 4 physical cores, 8 logical processors, using up to 8 threads
Optimize a model with 40962 rows, 25207 columns and 115394 nonzeros
Model fingerprint: 0xaef7f037
Model has 151 quadratic objective terms
Variable types: 10807 continuous, 14400 integer (14400 binary)
Coefficient statistics:
  Matrix range     [7e-04, 6e+01]
  Objective range  [2e-02, 3e+00]
  QObjective range [1e-01, 2e+00]
  Bounds range     [2e-01, 6e+01]
  RHS range        [2e-04, 6e+01]
Presolve removed 27124 rows and 12258 columns
Presolve time: 0.47s
Presolved: 13838 rows, 12949 columns, 65499 nonzeros
Presolved model has 151 quadratic objective terms
Variable types: 8988 continuous, 3961 integer (3961 binary)
Root relaxation presolve removed 3961 rows and 3961 columns
Root relaxation presolved: 9877 rows, 8988 columns, 57577 nonzeros
Root relaxation presolved model has 151 quadratic objective terms


Root relaxation: objective 6.611743e+01, 18772 iterations, 1.62 seconds (2.35 work units)

    Nodes    |    Current Node    |     Objective Bounds      |     Work
 Expl Unexpl |  Obj  Depth IntInf | Incumbent    BestBd   Gap | It/Node Time

     0     0   66.11743    0  947          -   66.11743      -     -    3s
     0     0   66.12351    0 1131          -   66.12351      -     -    9s
     0     0   66.12351    0 1120          -   66.12351      -     -    9s
     0     0   66.12351    0 1145          -   66.12351      -     -   11s
     0     0   66.12351    0 1169          -   66.12351      -     -   12s
     0     0   66.12351    0 1273          -   66.12351      -     -   13s

Cutting planes:
  Gomory: 3
  Cover: 9
  Implied bound: 77
  Clique: 61
  MIR: 800
  StrongCG: 5
  Flow cover: 384
  Relax-and-lift: 83

Explored 1 nodes (38528 simplex iterations) in 50.21 seconds (54.87 work units)
Thread count was 8 (of 8 available processors)

Solution count 0

Solve interrupted
Best objective -, best bound 6.612351349087e+01, gap -
